# Objective value = 5236.98
I_0_0 1088
I_0_1 1.5250000000000002e+03
I_0_2 1.3260000000000002e+03
I_0_3 1.3950000000000002e+03
I_0_4 1.2920000000000005e+03
I_0_5 1.1680000000000002e+03
I_0_6 1.6050000000000002e+03
I_1_0 77
I_1_1 0
I_1_2 77
I_1_3 0
I_1_4 77
I_1_5 77
I_1_6 0
I_2_0 52
I_2_1 2.6000000000000004e+01
I_2_2 52
I_2_3 2.5999999999999996e+01
I_2_4 52
I_2_5 26
I_2_6 0
I_3_0 150
I_3_1 75
I_3_2 0
I_3_3 1.5000000000000003e+02
I_3_4 7.4999999999999730e+01
I_3_5 150
I_3_6 75
I_4_0 20
I_4_1 10
I_4_2 20
I_4_3 1.0000000000000002e+01
I_4_4 2.0000000000000004e+01
I_4_5 10
I_4_6 0
I_5_0 39
I_5_1 3.4503649937178693e-15
I_5_2 39
I_5_3 3.4503649937178693e-15
I_5_4 39
I_5_5 39
I_5_6 0
I_6_0 118
I_6_1 5.9000000000000007e+01
I_6_2 1.1800000000000001e+02
I_6_3 5.9000000000000014e+01
I_6_4 0
I_6_5 1.1799999999999997e+02
I_6_6 5.8999999999999957e+01
I_7_0 54
I_7_1 0
I_7_2 54
I_7_3 4.7774284528401267e-15
I_7_4 54
I_7_5 54
I_7_6 0
I_8_0 42
I_8_1 3.4972025275692431e-15
I_8_2 42
I_8_3 0
I_8_4 42
I_8_5 42
I_8_6 0
I_9_0 88
I_9_1 4.4000000000000007e+01
I_9_2 -2.8421709430404007e-14
I_9_3 8.7999999999999986e+01
I_9_4 88
I_9_5 44
I_9_6 0
I_10_0 11
I_10_1 0
I_10_2 11
I_10_3 1.1000000000000002e+01
I_10_4 -3.5110803153770576e-15
I_10_5 11
I_10_6 0
q_1_0 0
q_1_1 154
q_1_2 0
q_1_3 154
q_1_4 77
q_1_5 0
q_2_0 3.5631220196563618e-15
q_2_1 5.1999999999999986e+01
q_2_2 0
q_2_3 52
q_2_4 0
q_2_5 0
q_3_0 0
q_3_1 -7.1054273576010019e-15
q_3_2 2.2500000000000003e+02
q_3_3 -2.9487523534044158e-13
q_3_4 1.5000000000000028e+02
q_3_5 0
q_4_0 0
q_4_1 20
q_4_2 0
q_4_3 20
q_4_4 0
q_4_5 0
q_5_0 3.4503649937178693e-15
q_5_1 78
q_5_2 3.4503649937178693e-15
q_5_3 78
q_5_4 39
q_5_5 0
q_6_0 9.8254737679326354e-15
q_6_1 118
q_6_2 0
q_6_3 -9.3258734068513149e-15
q_6_4 1.7699999999999997e+02
q_6_5 0
q_7_0 0
q_7_1 108
q_7_2 4.7774284528401267e-15
q_7_3 108
q_7_4 54
q_7_5 0
q_8_0 3.4972025275692431e-15
q_8_1 84
q_8_2 0
q_8_3 84
q_8_4 42
q_8_5 0
q_9_0 7.70911112724093e-15
q_9_1 -4.6185277824406512e-14
q_9_2 1.3200000000000003e+02
q_9_3 4.4000000000000014e+01
q_9_4 0
q_9_5 0
q_10_0 0
q_10_1 22
q_10_2 1.1000000000000002e+01
q_10_3 -5.2874371547773080e-15
q_10_4 2.2000000000000004e+01
q_10_5 0
y_0_0 2.5153490401663703e-17
y_0_1 1
y_0_2 1
y_0_3 1
y_0_4 1
y_0_5 0
y_1_0 0
y_1_1 1
y_1_2 0
y_1_3 1
y_1_4 1
y_1_5 0
y_2_0 1.3704315460216776e-16
y_2_1 1
y_2_2 0
y_2_3 1
y_2_4 0
y_2_5 0
y_3_0 0
y_3_1 -1.2490009027033011e-16
y_3_2 1
y_3_3 -2.4980018054066022e-16
y_3_4 1
y_3_5 0
y_4_0 0
y_4_1 1
y_4_2 0
y_4_3 1.0000000000000002e+00
y_4_4 0
y_4_5 0
y_5_0 8.8470897274817162e-17
y_5_1 1
y_5_2 8.8470897274817162e-17
y_5_3 1
y_5_4 1
y_5_5 0
y_6_0 1.6653345369377348e-16
y_6_1 1
y_6_2 0
y_6_3 0
y_6_4 1
y_6_5 0
y_7_0 0
y_7_1 1
y_7_2 8.8470897274817162e-17
y_7_3 1
y_7_4 1
y_7_5 0
y_8_0 8.3266726846886741e-17
y_8_1 1
y_8_2 0
y_8_3 1
y_8_4 1
y_8_5 0
y_9_0 1.7520707107365752e-16
y_9_1 -5.39499001028787e-16
y_9_2 1
y_9_3 1.0000000000000004e+00
y_9_4 0
y_9_5 0
y_10_0 0
y_10_1 1
y_10_2 1.0000000000000002e+00
y_10_3 -3.1918911957973251e-16
y_10_4 1
y_10_5 0
x_0_1_0 0
x_0_1_1 0
x_0_1_2 0
x_0_1_3 0
x_0_1_4 0
x_0_1_5 0
x_0_2_0 0
x_0_2_1 0
x_0_2_2 0
x_0_2_3 0
x_0_2_4 0
x_0_2_5 0
x_0_3_0 0
x_0_3_1 -1.2490009027033011e-16
x_0_3_2 1
x_0_3_3 -2.2204460492503131e-16
x_0_3_4 1
x_0_3_5 0
x_0_4_0 0
x_0_4_1 0
x_0_4_2 0
x_0_4_3 0
x_0_4_4 0
x_0_4_5 0
x_0_5_0 0
x_0_5_1 0
x_0_5_2 0
x_0_5_3 0
x_0_5_4 0
x_0_5_5 0
x_0_6_0 0
x_0_6_1 1.0000000000000002e+00
x_0_6_2 0
x_0_6_3 0
x_0_6_4 1
x_0_6_5 0
x_0_7_0 0
x_0_7_1 0
x_0_7_2 0
x_0_7_3 0
x_0_7_4 0
x_0_7_5 0
x_0_8_0 0
x_0_8_1 0
x_0_8_2 0
x_0_8_3 1
x_0_8_4 0
x_0_8_5 0
x_0_9_0 1.7867651802561113e-16
x_0_9_1 -1.1535911115245767e-15
x_0_9_2 1
x_0_9_3 1
x_0_9_4 0
x_0_9_5 0
x_0_10_0 0
x_0_10_1 1.0000000000000002e+00
x_0_10_2 0
x_0_10_3 0
x_0_10_4 -2.0816681711721685e-16
x_0_10_5 0
x_1_2_0 0
x_1_2_1 0
x_1_2_2 0
x_1_2_3 0
x_1_2_4 0
x_1_2_5 0
x_1_3_0 0
x_1_3_1 0
x_1_3_2 0
x_1_3_3 0
x_1_3_4 0
x_1_3_5 0
x_1_4_0 0
x_1_4_1 0
x_1_4_2 0
x_1_4_3 0
x_1_4_4 0
x_1_4_5 0
x_1_5_0 0
x_1_5_1 0
x_1_5_2 0
x_1_5_3 1.0928757898653885e-16
x_1_5_4 0
x_1_5_5 0
x_1_6_0 1.6653345369377348e-16
x_1_6_1 0
x_1_6_2 0
x_1_6_3 0
x_1_6_4 0
x_1_6_5 0
x_1_7_0 -3.1571967262777889e-16
x_1_7_1 9.9999999999999956e-01
x_1_7_2 0
x_1_7_3 1
x_1_7_4 1
x_1_7_5 0
x_1_8_0 0
x_1_8_1 1
x_1_8_2 0
x_1_8_3 1
x_1_8_4 1
x_1_8_5 0
x_1_9_0 0
x_1_9_1 0
x_1_9_2 0
x_1_9_3 0
x_1_9_4 0
x_1_9_5 0
x_1_10_0 1.4571677198205180e-16
x_1_10_1 -1.8908485888147197e-16
x_1_10_2 0
x_1_10_3 0
x_1_10_4 0
x_1_10_5 0
x_2_3_0 0
x_2_3_1 0
x_2_3_2 0
x_2_3_3 0
x_2_3_4 0
x_2_3_5 0
x_2_4_0 0
x_2_4_1 1
x_2_4_2 0
x_2_4_3 1
x_2_4_4 0
x_2_4_5 0
x_2_5_0 8.7603535536828758e-17
x_2_5_1 1
x_2_5_2 0
x_2_5_3 1
x_2_5_4 0
x_2_5_5 0
x_2_6_0 0
x_2_6_1 0
x_2_6_2 0
x_2_6_3 0
x_2_6_4 0
x_2_6_5 0
x_2_7_0 1.8648277366750676e-16
x_2_7_1 0
x_2_7_2 0
x_2_7_3 -2.2551405187698492e-17
x_2_7_4 0
x_2_7_5 0
x_2_8_0 0
x_2_8_1 0
x_2_8_2 0
x_2_8_3 0
x_2_8_4 0
x_2_8_5 0
x_2_9_0 0
x_2_9_1 0
x_2_9_2 0
x_2_9_3 0
x_2_9_4 0
x_2_9_5 0
x_2_10_0 0
x_2_10_1 0
x_2_10_2 0
x_2_10_3 0
x_2_10_4 0
x_2_10_5 0
x_3_4_0 0
x_3_4_1 0
x_3_4_2 0
x_3_4_3 0
x_3_4_4 0
x_3_4_5 0
x_3_5_0 0
x_3_5_1 0
x_3_5_2 0
x_3_5_3 0
x_3_5_4 0
x_3_5_5 0
x_3_6_0 0
x_3_6_1 0
x_3_6_2 0
x_3_6_3 0
x_3_6_4 0
x_3_6_5 0
x_3_7_0 0
x_3_7_1 0
x_3_7_2 0
x_3_7_3 0
x_3_7_4 0
x_3_7_5 0
x_3_8_0 0
x_3_8_1 0
x_3_8_2 0
x_3_8_3 0
x_3_8_4 0
x_3_8_5 0
x_3_9_0 1.4571677198205180e-16
x_3_9_1 0
x_3_9_2 0
x_3_9_3 0
x_3_9_4 0
x_3_9_5 0
x_3_10_0 -1.4571677198205180e-16
x_3_10_1 -1.2490009027033011e-16
x_3_10_2 1
x_3_10_3 -2.0816681711721685e-16
x_3_10_4 1
x_3_10_5 0
x_4_5_0 0
x_4_5_1 0
x_4_5_2 0
x_4_5_3 0
x_4_5_4 0
x_4_5_5 0
x_4_6_0 0
x_4_6_1 0
x_4_6_2 0
x_4_6_3 0
x_4_6_4 0
x_4_6_5 0
x_4_7_0 0
x_4_7_1 0
x_4_7_2 0
x_4_7_3 0
x_4_7_4 0
x_4_7_5 0
x_4_8_0 0
x_4_8_1 0
x_4_8_2 0
x_4_8_3 0
x_4_8_4 0
x_4_8_5 0
x_4_9_0 0
x_4_9_1 8.8470897274817162e-17
x_4_9_2 0
x_4_9_3 1.0000000000000004e+00
x_4_9_4 0
x_4_9_5 0
x_4_10_0 0
x_4_10_1 1
x_4_10_2 0
x_4_10_3 0
x_4_10_4 0
x_4_10_5 0
x_5_6_0 0
x_5_6_1 0
x_5_6_2 0
x_5_6_3 0
x_5_6_4 0
x_5_6_5 0
x_5_7_0 1.4311468676808659e-16
x_5_7_1 1
x_5_7_2 8.8470897274817162e-17
x_5_7_3 1
x_5_7_4 1
x_5_7_5 0
x_5_8_0 0
x_5_8_1 0
x_5_8_2 0
x_5_8_3 0
x_5_8_4 0
x_5_8_5 0
x_5_9_0 0
x_5_9_1 0
x_5_9_2 8.8470897274817162e-17
x_5_9_3 0
x_5_9_4 0
x_5_9_5 0
x_5_10_0 0
x_5_10_1 0
x_5_10_2 0
x_5_10_3 0
x_5_10_4 1
x_5_10_5 0
x_6_7_0 0
x_6_7_1 0
x_6_7_2 0
x_6_7_3 0
x_6_7_4 0
x_6_7_5 0
x_6_8_0 1.6653345369377348e-16
x_6_8_1 1
x_6_8_2 0
x_6_8_3 0
x_6_8_4 1
x_6_8_5 0
x_6_9_0 0
x_6_9_1 0
x_6_9_2 0
x_6_9_3 0
x_6_9_4 0
x_6_9_5 0
x_6_10_0 0
x_6_10_1 -1.6653345369377348e-16
x_6_10_2 0
x_6_10_3 0
x_6_10_4 0
x_6_10_5 0
x_7_8_0 0
x_7_8_1 0
x_7_8_2 0
x_7_8_3 0
x_7_8_4 0
x_7_8_5 0
x_7_9_0 0
x_7_9_1 0
x_7_9_2 0
x_7_9_3 0
x_7_9_4 0
x_7_9_5 0
x_7_10_0 0
x_7_10_1 0
x_7_10_2 1.0928757898653885e-16
x_7_10_3 0
x_7_10_4 0
x_7_10_5 0
x_8_9_0 0
x_8_9_1 0
x_8_9_2 0
x_8_9_3 0
x_8_9_4 0
x_8_9_5 0
x_8_10_0 0
x_8_10_1 1.6653345369377348e-16
x_8_10_2 0
x_8_10_3 0
x_8_10_4 0
x_8_10_5 0
x_9_10_0 0
x_9_10_1 0
x_9_10_2 1.0000000000000002e+00
x_9_10_3 2.3592239273284576e-16
x_9_10_4 0
x_9_10_5 0
